32      4       
14      14      17      17      
0       0       0       0       0       3       2       4       6       
4       0       0       7       1       2       3       5       
10      4       0       0       13      2       7       10      
9       2       0       5       0       2       7       10      
1       1       0       7       0       3       8       9       10      
6       6       0       0       1       1       7       
5       4       0       2       0       2       8       9       
7       0       0       5       5       1       11      
7       0       0       1       1       1       11      
7       8       1       0       0       1       11      
8       0       4       3       0       2       12      14      
5       2       1       0       0       1       13      
6       3       6       0       0       2       15      16      
2       2       6       0       0       2       16      17      
2       1       0       8       0       2       17      23      
8       0       1       0       1       4       19      20      21      23      
9       0       5       0       1       1       18      
3       0       6       0       12      3       19      20      21      
10      0       1       7       0       2       22      24      
5       0       7       5       0       3       24      25      29      
2       0       1       0       4       3       24      25      29      
4       0       0       2       1       3       25      28      29      
1       7       1       0       0       2       24      29      
7       0       0       6       4       3       26      27      28      
4       0       0       2       1       2       26      27      
3       5       9       0       0       2       30      31      
10      0       0       1       11      2       30      31      
10      4       0       0       1       2       30      31      
5       0       3       3       0       2       30      31      
5       3       1       0       0       1       32      
4       1       0       0       7       1       32      
0       0       0       0       0       0       
